clingo version 5.3.0
Reading from ...nchmarks/assign/currentInst/x28_y28.lp ...
Solving...
*** Info : (clingo): INTERRUPTED by signal!
UNKNOWN

INTERRUPTED  : 1
Models       : 0+
Calls        : 1
Time         : 59.970s (Solving: 55.39s 1st Model: 0.00s Unsat: 0.00s)
CPU Time     : 59.944s

Choices      : 10115086
Conflicts    : 128533   (Analyzed: 128533)
Restarts     : 380      (Average: 338.24 Last: 127213)
Problems     : 1        (Average Length: 0.00 Splits: 0)
Lemmas       : 128533   (Deleted: 110304)
  Binary     : 0        (Ratio:   0.00%)
  Ternary    : 0        (Ratio:   0.00%)
  Conflict   : 128533   (Average Length: 1934.9 Ratio: 100.00%) 
  Loop       : 0        (Average Length:    0.0 Ratio:   0.00%) 
  Other      : 0        (Average Length:    0.0 Ratio:   0.00%) 
Backjumps    : 128533   (Average:  4.10 Max: 24259 Sum: 526684)
  Executed   : 128533   (Average:  4.10 Max: 24259 Sum: 526684 Ratio: 100.00%)
  Bounded    : 0        (Average:  0.00 Max:   0 Sum:      0 Ratio:   0.00%)

Rules        : 824434   (Original: 819070)
  Choice     : 148230  
  Minimize   : 1       
Atoms        : 88980   
Bodies       : 661510   (Original: 658846)
  Count      : 1062     (Original: 1098)
Equivalences : 79317    (Atom=Atom: 792 Body=Body: 531 Other: 77994)
Tight        : Yes
Variables    : 76698    (Eliminated:    0 Frozen: 75600)
Constraints  : 589914   (Binary:  99.8% Ternary:   0.0% Other:   0.2%)

